Version identifier: 22.1.1.0 | 2022-11-28 | 9160aff4d
CPXPARAM_ClockType                               1
CPXPARAM_Read_DataCheck                          1
CPXPARAM_Threads                                 1
CPXPARAM_Simplex_Tolerances_Optimality           1.0000000000000001e-09
CPXPARAM_TimeLimit                               7200
CPXPARAM_MIP_Tolerances_AbsMIPGap                0
CPXPARAM_MIP_Tolerances_MIPGap                   0
CPXPARAM_MIP_Tolerances_Integrality              0
Tried aggregator 5 times.
MIQP Presolve eliminated 15565 rows and 706 columns.
MIQP Presolve modified 348 coefficients.
Aggregator did 468 substitutions.
Reduced MIQP has 9300 rows, 6116 columns, and 41396 nonzeros.
Reduced MIQP has 5504 binaries, 612 generals, 0 SOSs, and 0 indicators.
Reduced MIQP objective Q matrix has 612 nonzeros.
Presolve time = 0.07 sec. (58.34 ticks)
Probing time = 0.01 sec. (3.38 ticks)
Tried aggregator 1 time.
Reduced MIQP has 9300 rows, 6116 columns, and 41396 nonzeros.
Reduced MIQP has 5504 binaries, 612 generals, 0 SOSs, and 0 indicators.
Reduced MIQP objective Q matrix has 612 nonzeros.
Presolve time = 0.03 sec. (18.50 ticks)
Classifier predicts products in MIQP should be linearized.
Probing time = 0.00 sec. (3.37 ticks)
Clique table members: 764.
MIP emphasis: balance optimality and feasibility.
MIP search method: dynamic search.
Parallel mode: none, using 1 thread.
Root relaxation solution time = 9.58 sec. (8555.58 ticks)

        Nodes                                         Cuts/
   Node  Left     Objective  IInf  Best Integer    Best Bound    ItCnt     Gap

      0     0     1271.9608  3051                   1271.9608     9024         

Clique cuts applied:  3
Zero-half cuts applied:  178

Root node processing (before b&c):
  Real time             = 7202.95 sec. (3754530.58 ticks)
Sequential b&c:
  Real time             =    0.00 sec. (0.00 ticks)
                          ------------
Total (root+branch&cut) = 7202.95 sec. (3754530.58 ticks)
Solution is infeasible.

---------------------
@@@ MIP_time_limit_infeasible
Traceback (most recent call last):
  File "/scratch/scherif/DiverseSAT-journal_sup/DiverseSAT_Supplementary_Experiments/experiment-1/cplex/jobs/../solvers/CPLEX-QP-SE.py", line 118, in <module>
    print(f">>> Benchmark {os.path.basename(cnf_file)} k {k} OPT {int(prob.solution.get_objective_value())}"
  File "/users/scherif/.local/lib/python3.9/site-packages/cplex/_internal/_subinterfaces.py", line 7211, in get_objective_value
    return CPX_PROC.getobjval(self._env._e, self._cplex._lp)
  File "/users/scherif/.local/lib/python3.9/site-packages/cplex/_internal/_procedural.py", line 2055, in getobjval
    check_status(env, status)
  File "/users/scherif/.local/lib/python3.9/site-packages/cplex/_internal/_procedural.py", line 249, in __call__
    raise CplexSolverError(error_string, env, status)
cplex.exceptions.errors.CplexSolverError: CPLEX Error  1217: No solution exists.
